\Generated by Cardinal Operations

Maximize
   1024.58 x_1 + 1025.42 x_2 + 102550 x_3 + 10347.46 x_4 + 10432.2 x_5 
   + 10508.48 x_6 + 10932.2 x_7 + 1288.14 x_8 + 1322.04 x_9 + 1363.56 x_10 
   + 1364.4 x_11 + 1406.78 x_12 + 1448.3 x_13 + 1449.15 x_14 + 1449.16 x_15 
   + 1491.52 x_16 + 1491.53 x_17 + 1533.9 x_18 + 1576.28 x_19 
   + 1610.16 x_20 + 1618.64 x_21 + 16448.3 x_22 + 1694.92 x_23 
   + 1703.38 x_24 + 1703.39 x_25 + 1745.76 x_26 + 1788.14 x_27 
   + 17932.2 x_28 + 1830.5 x_29 + 1838.98 x_30 + 1864.4 x_31 + 1872.04 x_32 
   + 1872.88 x_33 + 18983.06 x_34 + 1915.26 x_35 + 1957.62 x_36 
   + 1972.04 x_37 + 19838.98 x_38 + 2000 x_39 + 20254.24 x_40 
   + 2041.52 x_41 + 2042.37 x_42 + 2042.38 x_43 + 20677.96 x_44 
   + 20677.97 x_45 + 2084.74 x_46 + 2105.94 x_47 + 2126.28 x_48 
   + 2127.12 x_49 + 21525.42 x_50 + 2169.5 x_51 + 2211.86 x_52 
   + 2254.24 x_53 + 2255.08 x_54 + 2295.76 x_55 + 2296.61 x_56 
   + 2296.62 x_57 + 2338.98 x_58 + 23644.06 x_59 + 23652.54 x_60 
   + 2381.36 x_61 + 24915.26 x_62 + 25762.71 x_63 + 25762.72 x_64 
   + 27033.9 x_65 + 30000 x_66 + 3736.44 x_67 + 3737.28 x_68 + 415.26 x_69 
   + 423.73 x_70 + 431.36 x_71 + 432.2 x_72 + 455.08 x_73 + 457.62 x_74 
   + 4583.9 x_75 + 4584.74 x_76 + 4669.5 x_77 + 474.58 x_78 + 49152.54 x_79 
   + 508.47 x_80 + 508.48 x_81 + 5093.22 x_82 + 514.84 x_83 + 516.1 x_84 
   + 516.9400000000001 x_85 + 5432.2 x_86 + 553.9 x_87 
   + 559.3200000000001 x_88 + 5855.08 x_89 + 5940.68 x_90 + 6278.82 x_91 
   + 6279.66 x_92 + 685.6 x_93 + 686.4400000000001 x_94 + 7118.64 x_95 
   + 7127.12 x_96 + 728.8200000000001 x_97 + 7296.62 x_98 + 7542.38 x_99 
   + 7550.84 x_100 + 770.34 x_101 + 771.1799999999999 x_102 
   + 771.1900000000001 x_103 + 7796.62 x_104 + 7805.08 x_105 
   + 7889.84 x_106 + 7966.1 x_107 + 8821.18 x_108 + 8821.190000000001 x_109 
   + 9669.5 x_110 + 983.0599999999999 x_111 + 1008.92 x_112 + 10125 x_113 
   + 1017.86 x_114 + 10205.36 x_115 + 10213.4 x_116 + 10214.28 x_117 
   + 1025.42 x_118 + 102550 x_119 + 10392.86 x_120 + 104767.86 x_121 
   + 10516.1 x_122 + 10651.78 x_123 + 10651.79 x_124 + 10728.82 x_125 
   + 10760.72 x_126 + 10940.68 x_127 + 11098.22 x_128 + 11105.93 x_129 
   + 11105.94 x_130 + 11106.24 x_131 + 11107.14 x_132 + 11110.16 x_133 
   + 11627.68 x_134 + 11642.86 x_135 + 11910.72 x_136 + 11991.08 x_137 
   + 11999 x_138 + 11999.1 x_139 + 11999.11 x_140 + 12000 x_141 
   + 12089.28 x_142 + 12089.29 x_143 + 12133.93 x_144 + 12203.38 x_145 
   + 12211.02 x_146 + 12211.86 x_147 + 12437.5 x_148 + 12446.42 x_149 
   + 12714.28 x_150 + 12803.58 x_151 + 1285.72 x_152 + 12883.92 x_153 
   + 12891.96 x_154 + 12892.37 x_155 + 12892.38 x_156 + 12892.86 x_157 
   + 13058.47 x_158 + 13058.48 x_159 + 1308.04 x_160 + 1330.36 x_161 
   + 13330.36 x_162 + 13339.28 x_163 + 13360.72 x_164 + 13361.6 x_165 
   + 13428.58 x_166 + 13482.2 x_167 + 1366.08 x_168 + 13776.78 x_169 
   + 13776.79 x_170 + 13779.66 x_171 + 13784.74 x_172 + 13784.82 x_173 
   + 13897.46 x_174 + 14223.22 x_175 + 14232.14 x_176 + 14330.5 x_177 
   + 14669.64 x_178 + 14677.68 x_179 + 15125 x_180 + 15177.12 x_181 
   + 15177.96 x_182 + 15528.58 x_183 + 15562.5 x_184 + 15601.7 x_185 
   + 15660.72 x_186 + 15857.14 x_187 + 15883.92 x_188 + 15960.72 x_189 
   + 16008.92 x_190 + 16364.4 x_191 + 16375 x_192 + 16448.3 x_193 
   + 16448.31 x_194 + 16455.36 x_195 + 16777.12 x_196 + 16828.58 x_197 
   + 16835.6 x_198 + 17295.76 x_199 + 17348.21 x_200 + 17348.22 x_201 
   + 17355.93 x_202 + 17355.94 x_203 + 17356.24 x_204 + 17356.25 x_205 
   + 17357.14 x_206 + 17794.64 x_207 + 17803.58 x_208 + 18143.22 x_209 
   + 18562.5 x_210 + 18571.42 x_211 + 18687.5 x_212 + 18785.71 x_213 
   + 18964.29 x_214 + 18990.68 x_215 + 18991.52 x_216 + 19133.92 x_217 
   + 19141.96 x_218 + 19142.86 x_219 + 19187.5 x_220 + 19428.58 x_221 
   + 19436.6 x_222 + 19455.36 x_223 + 19500 x_224 + 19838.14 x_225 
   + 19838.98 x_226 + 20026.78 x_227 + 20026.79 x_228 + 20034.82 x_229 
   + 20035.72 x_230 + 20261.86 x_231 + 20303.38 x_232 + 20303.39 x_233 
   + 20303.58 x_234 + 2042.38 x_235 + 20482.14 x_236 + 20685.6 x_237 
   + 20919.64 x_238 + 20927.68 x_239 + 20928.58 x_240 + 21449.16 x_241 
   + 21533.06 x_242 + 21732.14 x_243 + 21820.54 x_244 + 21951.78 x_245 
   + 22380.5 x_246 + 22705.36 x_247 + 22713.4 x_248 + 22714.28 x_249 
   + 23227.96 x_250 + 2357.14 x_251 + 23606.24 x_252 + 23771.18 x_253 
   + 2379.46 x_254 + 23898.3 x_255 + 2446.42 x_256 + 24499.11 x_257 
   + 24499.15 x_258 + 24499.16 x_259 + 24630.36 x_260 + 24633.93 x_261 
   + 24678.58 x_262 + 24753.38 x_263 + 25383.92 x_264 + 25383.93 x_265 
   + 25391.96 x_266 + 25571.42 x_267 + 25770.34 x_268 + 26196.42 x_269 
   + 26284.82 x_270 + 26650.84 x_271 + 26650.85 x_272 + 27169.64 x_273 
   + 27177.68 x_274 + 27465.25 x_275 + 27465.26 x_276 + 27466.1 x_277 
   + 27499.16 x_278 + 28617.8 x_279 + 29848.22 x_280 + 30741.08 x_281 
   + 30750 x_282 + 31553.58 x_283 + 31702.54 x_284 + 32526.78 x_285 
   + 32764.4 x_286 + 33397.46 x_287 + 34320.54 x_288 + 35093.22 x_289 
   + 35205.36 x_290 + 35213.4 x_291 + 36106.24 x_292 + 3736.44 x_293 
   + 38250 x_294 + 38696.62 x_295 + 39330.5 x_296 + 39589.28 x_297 
   + 39677.68 x_298 + 40177.12 x_299 + 40562.5 x_300 + 410.71 x_301 
   + 4130.36 x_302 + 4161.02 x_303 + 41872.03 x_304 + 41872.04 x_305 
   + 4223.22 x_306 + 42348.21 x_307 + 42348.22 x_308 + 4410.72 x_309 
   + 44133.92 x_310 + 44133.93 x_311 + 44142.86 x_312 + 4583.9 x_313 
   + 45919.64 x_314 + 4669.5 x_315 + 4754.24 x_316 + 47705.36 x_317 
   + 47872.04 x_318 + 482.14 x_319 + 4830.5 x_320 + 4856.24 x_321 
   + 4857.14 x_322 + 4866.08 x_323 + 49152.54 x_324 + 49410.71 x_325 
   + 49410.72 x_326 + 5007.62 x_327 + 5026.78 x_328 + 5026.79 x_329 
   + 50303.58 x_330 + 5035.72 x_331 + 5093.22 x_332 + 51196.42 x_333 
   + 51196.43 x_334 + 526.78 x_335 + 5262.72 x_336 + 53652.54 x_337 
   + 5392.86 x_338 + 54767.86 x_339 + 56553.58 x_340 + 571.42 x_341 
   + 57446.42 x_342 + 57446.43 x_343 + 58339.28 x_344 + 58605.93 x_345 
   + 58821.18 x_346 + 59232.14 x_347 + 59244.92 x_348 + 5928.58 x_349 
   + 59320.54 x_350 + 60125 x_351 + 6025.42 x_352 + 61017.86 x_353 
   + 61105.94 x_354 + 6169.64 x_355 + 6187.5 x_356 + 61872.88 x_357 
   + 6196.42 x_358 + 61999.1 x_359 + 61999.11 x_360 + 62000 x_361 
   + 62211.02 x_362 + 6278.82 x_363 + 6366.08 x_364 + 6375 x_365 
   + 6449.16 x_366 + 64589.28 x_367 + 6486.61 x_368 + 6491.52 x_369 
   + 64939.84 x_370 + 65482.14 x_371 + 65570.53999999999 x_372 
   + 65600.84 x_373 + 65600.85000000001 x_374 + 6563.39 x_375 
   + 6563.4 x_376 + 6598.21 x_377 + 6618.64 x_378 + 6633.92 x_379 
   + 6633.93 x_380 + 6703.38 x_381 + 6788.14 x_382 + 6812.5 x_383 
   + 683.04 x_384 + 694.92 x_385 + 70034.74000000001 x_386 + 705.36 x_387 
   + 7080.36 x_388 + 7089.28 x_389 + 70927.67999999999 x_390 
   + 70928.58 x_391 + 7126.28 x_392 + 72380.5 x_393 
   + 727.6799999999999 x_394 + 728.8200000000001 x_395 + 7300.84 x_396 
   + 7300.85 x_397 + 7312.5 x_398 + 750 x_399 + 7526.78 x_400 
   + 75303.57000000001 x_401 + 75303.58 x_402 + 7533.9 x_403 
   + 7534.82 x_404 + 758.92 x_405 + 794.64 x_406 + 7973.22 x_407 
   + 7981.24 x_408 + 7982.14 x_409 + 79856.24000000001 x_410 
   + 8026.78 x_411 + 81553.58 x_412 + 8160.71 x_413 + 8160.72 x_414 
   + 8249.1 x_415 + 82534.82000000001 x_416 + 8339.280000000001 x_417 
   + 8339.290000000001 x_418 + 8397.459999999999 x_419 
   + 8419.639999999999 x_420 + 8427.68 x_421 + 8428.58 x_422 
   + 8821.18 x_423 + 8822.040000000001 x_424 + 883.92 x_425 + 8866.08 x_426 
   + 8874.1 x_427 + 8874.110000000001 x_428 + 8964.280000000001 x_429 
   + 8991.52 x_430 + 9026.780000000001 x_431 + 906.24 x_432 + 906.78 x_433 
   + 9232.139999999999 x_434 + 928.58 x_435 + 9312.5 x_436 + 9321.43 x_437 
   + 9372.879999999999 x_438 + 9459.82 x_439 + 949.16 x_440 + 950.9 x_441 
   + 9668.639999999999 x_442 + 973.22 x_443 + 9754.24 x_444 + 9758.92 x_445 
   + 9758.93 x_446 + 9767.860000000001 x_447 + 97713.39999999999 x_448 
   + 982.14 x_449 + 983.0599999999999 x_450 + 9838.98 x_451 
   + 9901.690000000001 x_452 + 9901.780000000001 x_453 
   + 9923.719999999999 x_454 + 10084.74 x_455 + 12211.86 x_456 
   + 14669.5 x_457 + 14745.76 x_458 + 14754.24 x_459 + 16448.3 x_460 
   + 16448.31 x_461 + 20143.22 x_462 + 2042.38 x_463 + 24915.25 x_464 
   + 24915.26 x_465 + 26448.3 x_466 + 27042.38 x_467 + 30000 x_468 
   + 33397.46 x_469 + 33398.3 x_470 + 48567.8 x_471 + 48644.07 x_472 
   + 50262.72 x_473 + 53736.44 x_474 + 6957.62 x_475 + 6957.63 x_476 
   + 7550.84 x_477 + 7550.85 x_478 + 9584.74 x_479 + 9661.02 x_480 
   + 9669.5 x_481 
Subject To
 inventory_constraint: x_1 <= 40
 x_2 <= 80
 x_3 <= 20
 x_4 <= 20
 x_5 <= 30
 x_6 <= 60
 x_7 <= 20
 x_8 <= 20
 x_9 <= 20
 x_10 <= 30
 x_11 <= 110
 x_12 <= 260
 x_13 <= 10
 x_14 <= 40
 x_15 <= 500
 x_16 <= 70
 x_17 <= 20
 x_18 <= 430
 x_19 <= 20
 x_20 <= 30
 x_21 <= 960
 x_22 <= 70
 x_23 <= 70
 x_24 <= 340
 x_25 <= 30
 x_26 <= 20
 x_27 <= 270
 x_28 <= 10
 x_29 <= 10
 x_30 <= 40
 x_31 <= 10
 x_32 <= 20
 x_33 <= 200
 x_34 <= 160
 x_35 <= 30
 x_36 <= 160
 x_37 <= 10
 x_38 <= 10
 x_39 <= 40
 x_40 <= 10
 x_41 <= 260
 x_42 <= 30
 x_43 <= 730
 x_44 <= 110
 x_45 <= 10
 x_46 <= 40
 x_47 <= 10
 x_48 <= 170
 x_49 <= 60
 x_50 <= 70
 x_51 <= 70
 x_52 <= 190
 x_53 <= 120
 x_54 <= 10
 x_55 <= 470
 x_56 <= 10
 x_57 <= 140
 x_58 <= 90
 x_59 <= 30
 x_60 <= 120
 x_61 <= 90
 x_62 <= 300
 x_63 <= 20
 x_64 <= 30
 x_65 <= 20
 x_66 <= 20
 x_67 <= 20
 x_68 <= 60
 x_69 <= 20
 x_70 <= 20
 x_71 <= 60
 x_72 <= 280
 x_73 <= 20
 x_74 <= 20
 x_75 <= 30
 x_76 <= 30
 x_77 <= 20
 x_78 <= 200
 x_79 <= 60
 x_80 <= 30
 x_81 <= 1630
 x_82 <= 10
 x_83 <= 120
 x_84 <= 460
 x_85 <= 250
 x_86 <= 20
 x_87 <= 20
 x_88 <= 110
 x_89 <= 50
 x_90 <= 20
 x_91 <= 20
 x_92 <= 20
 x_93 <= 860
 x_94 <= 140
 x_95 <= 20
 x_96 <= 40
 x_97 <= 30
 x_98 <= 10
 x_99 <= 20
 x_100 <= 20
 x_101 <= 100
 x_102 <= 250
 x_103 <= 20
 x_104 <= 40
 x_105 <= 10
 x_106 <= 10
 x_107 <= 270
 x_108 <= 20
 x_109 <= 20
 x_110 <= 40
 x_111 <= 30
 x_112 <= 10
 x_113 <= 40
 x_114 <= 20
 x_115 <= 310
 x_116 <= 190
 x_117 <= 50
 x_118 <= 20
 x_119 <= 860
 x_120 <= 40
 x_121 <= 10
 x_122 <= 220
 x_123 <= 650
 x_124 <= 10
 x_125 <= 20
 x_126 <= 20
 x_127 <= 20
 x_128 <= 880
 x_129 <= 20
 x_130 <= 20
 x_131 <= 20
 x_132 <= 20
 x_133 <= 20
 x_134 <= 200
 x_135 <= 40
 x_136 <= 70
 x_137 <= 880
 x_138 <= 20
 x_139 <= 70
 x_140 <= 10
 x_141 <= 120
 x_142 <= 40
 x_143 <= 260
 x_144 <= 80
 x_145 <= 20
 x_146 <= 320
 x_147 <= 40
 x_148 <= 20
 x_149 <= 120
 x_150 <= 20
 x_151 <= 420
 x_152 <= 160
 x_153 <= 240
 x_154 <= 250
 x_155 <= 40
 x_156 <= 130
 x_157 <= 10
 x_158 <= 20
 x_159 <= 70
 x_160 <= 40
 x_161 <= 70
 x_162 <= 850
 x_163 <= 20
 x_164 <= 80
 x_165 <= 20
 x_166 <= 20
 x_167 <= 120
 x_168 <= 70
 x_169 <= 510
 x_170 <= 20
 x_171 <= 20
 x_172 <= 100
 x_173 <= 350
 x_174 <= 20
 x_175 <= 180
 x_176 <= 160
 x_177 <= 50
 x_178 <= 1050
 x_179 <= 290
 x_180 <= 20
 x_181 <= 300
 x_182 <= 10
 x_183 <= 20
 x_184 <= 1230
 x_185 <= 10
 x_186 <= 70
 x_187 <= 70
 x_188 <= 420
 x_189 <= 10
 x_190 <= 200
 x_191 <= 20
 x_192 <= 790
 x_193 <= 720
 x_194 <= 180
 x_195 <= 1610
 x_196 <= 20
 x_197 <= 40
 x_198 <= 20
 x_199 <= 450
 x_200 <= 60
 x_201 <= 1630
 x_202 <= 20
 x_203 <= 50
 x_204 <= 340
 x_205 <= 10
 x_206 <= 20
 x_207 <= 40
 x_208 <= 20
 x_209 <= 100
 x_210 <= 10
 x_211 <= 20
 x_212 <= 200
 x_213 <= 60
 x_214 <= 120
 x_215 <= 100
 x_216 <= 20
 x_217 <= 850
 x_218 <= 280
 x_219 <= 220
 x_220 <= 20
 x_221 <= 260
 x_222 <= 10
 x_223 <= 20
 x_224 <= 430
 x_225 <= 40
 x_226 <= 80
 x_227 <= 770
 x_228 <= 80
 x_229 <= 170
 x_230 <= 10
 x_231 <= 90
 x_232 <= 10
 x_233 <= 80
 x_234 <= 240
 x_235 <= 160
 x_236 <= 240
 x_237 <= 20
 x_238 <= 1390
 x_239 <= 190
 x_240 <= 10
 x_241 <= 20
 x_242 <= 20
 x_243 <= 240
 x_244 <= 270
 x_245 <= 20
 x_246 <= 100
 x_247 <= 370
 x_248 <= 10
 x_249 <= 20
 x_250 <= 20
 x_251 <= 20
 x_252 <= 20
 x_253 <= 20
 x_254 <= 20
 x_255 <= 190
 x_256 <= 20
 x_257 <= 10
 x_258 <= 20
 x_259 <= 60
 x_260 <= 10
 x_261 <= 20
 x_262 <= 40
 x_263 <= 130
 x_264 <= 700
 x_265 <= 20
 x_266 <= 210
 x_267 <= 20
 x_268 <= 120
 x_269 <= 180
 x_270 <= 170
 x_271 <= 40
 x_272 <= 30
 x_273 <= 260
 x_274 <= 180
 x_275 <= 20
 x_276 <= 80
 x_277 <= 20
 x_278 <= 220
 x_279 <= 300
 x_280 <= 190
 x_281 <= 70
 x_282 <= 10
 x_283 <= 40
 x_284 <= 20
 x_285 <= 170
 x_286 <= 20
 x_287 <= 100
 x_288 <= 20
 x_289 <= 20
 x_290 <= 70
 x_291 <= 30
 x_292 <= 110
 x_293 <= 70
 x_294 <= 20
 x_295 <= 20
 x_296 <= 20
 x_297 <= 20
 x_298 <= 40
 x_299 <= 40
 x_300 <= 500
 x_301 <= 2000
 x_302 <= 50
 x_303 <= 10
 x_304 <= 30
 x_305 <= 80
 x_306 <= 180
 x_307 <= 10
 x_308 <= 70
 x_309 <= 10
 x_310 <= 40
 x_311 <= 90
 x_312 <= 10
 x_313 <= 100
 x_314 <= 10
 x_315 <= 20
 x_316 <= 40
 x_317 <= 20
 x_318 <= 240
 x_319 <= 120
 x_320 <= 20
 x_321 <= 20
 x_322 <= 20
 x_323 <= 80
 x_324 <= 20
 x_325 <= 10
 x_326 <= 200
 x_327 <= 20
 x_328 <= 130
 x_329 <= 10
 x_330 <= 50
 x_331 <= 60
 x_332 <= 20
 x_333 <= 590
 x_334 <= 90
 x_335 <= 30
 x_336 <= 30
 x_337 <= 20
 x_338 <= 90
 x_339 <= 230
 x_340 <= 40
 x_341 <= 80
 x_342 <= 600
 x_343 <= 40
 x_344 <= 50
 x_345 <= 100
 x_346 <= 40
 x_347 <= 630
 x_348 <= 40
 x_349 <= 20
 x_350 <= 40
 x_351 <= 1180
 x_352 <= 10
 x_353 <= 380
 x_354 <= 20
 x_355 <= 20
 x_356 <= 60
 x_357 <= 20
 x_358 <= 60
 x_359 <= 180
 x_360 <= 20
 x_361 <= 10
 x_362 <= 10
 x_363 <= 80
 x_364 <= 60
 x_365 <= 1170
 x_366 <= 40
 x_367 <= 60
 x_368 <= 100
 x_369 <= 20
 x_370 <= 30
 x_371 <= 570
 x_372 <= 90
 x_373 <= 300
 x_374 <= 40
 x_375 <= 10
 x_376 <= 60
 x_377 <= 150
 x_378 <= 40
 x_379 <= 770
 x_380 <= 60
 x_381 <= 40
 x_382 <= 40
 x_383 <= 80
 x_384 <= 30
 x_385 <= 10
 x_386 <= 20
 x_387 <= 40
 x_388 <= 560
 x_389 <= 30
 x_390 <= 470
 x_391 <= 10
 x_392 <= 60
 x_393 <= 10
 x_394 <= 60
 x_395 <= 140
 x_396 <= 100
 x_397 <= 40
 x_398 <= 50
 x_399 <= 1200
 x_400 <= 320
 x_401 <= 20
 x_402 <= 120
 x_403 <= 60
 x_404 <= 110
 x_405 <= 70
 x_406 <= 80
 x_407 <= 180
 x_408 <= 100
 x_409 <= 20
 x_410 <= 20
 x_411 <= 80
 x_412 <= 20
 x_413 <= 20
 x_414 <= 220
 x_415 <= 20
 x_416 <= 20
 x_417 <= 120
 x_418 <= 30
 x_419 <= 40
 x_420 <= 50
 x_421 <= 270
 x_422 <= 60
 x_423 <= 100
 x_424 <= 20
 x_425 <= 40
 x_426 <= 50
 x_427 <= 80
 x_428 <= 10
 x_429 <= 40
 x_430 <= 20
 x_431 <= 20
 x_432 <= 10
 x_433 <= 20
 x_434 <= 100
 x_435 <= 380
 x_436 <= 280
 x_437 <= 40
 x_438 <= 20
 x_439 <= 130
 x_440 <= 90
 x_441 <= 240
 x_442 <= 280
 x_443 <= 550
 x_444 <= 20
 x_445 <= 950
 x_446 <= 40
 x_447 <= 100
 x_448 <= 10
 x_449 <= 360
 x_450 <= 20
 x_451 <= 20
 x_452 <= 40
 x_453 <= 50
 x_454 <= 20
 x_455 <= 10
 x_456 <= 300
 x_457 <= 30
 x_458 <= 30
 x_459 <= 100
 x_460 <= 110
 x_461 <= 20
 x_462 <= 80
 x_463 <= 10
 x_464 <= 10
 x_465 <= 160
 x_466 <= 70
 x_467 <= 10
 x_468 <= 10
 x_469 <= 30
 x_470 <= 10
 x_471 <= 30
 x_472 <= 10
 x_473 <= 30
 x_474 <= 30
 x_475 <= 40
 x_476 <= 80
 x_477 <= 300
 x_478 <= 40
 x_479 <= 40
 x_480 <= 190
 x_481 <= 20
 demand_constraint: x_1 <= 8
 x_2 <= 16
 x_3 <= 4
 x_4 <= 4
 x_5 <= 6
 x_6 <= 12
 x_7 <= 4
 x_8 <= 4
 x_9 <= 4
 x_10 <= 6
 x_11 <= 22
 x_12 <= 48
 x_13 <= 2
 x_14 <= 7
 x_15 <= 100
 x_16 <= 14
 x_17 <= 4
 x_18 <= 84
 x_19 <= 4
 x_20 <= 6
 x_21 <= 192
 x_22 <= 14
 x_23 <= 14
 x_24 <= 68
 x_25 <= 6
 x_26 <= 4
 x_27 <= 54
 x_28 <= 2
 x_29 <= 2
 x_30 <= 8
 x_31 <= 2
 x_32 <= 4
 x_33 <= 40
 x_34 <= 32
 x_35 <= 6
 x_36 <= 32
 x_37 <= 2
 x_38 <= 2
 x_39 <= 8
 x_40 <= 2
 x_41 <= 52
 x_42 <= 6
 x_43 <= 146
 x_44 <= 22
 x_45 <= 2
 x_46 <= 8
 x_47 <= 2
 x_48 <= 34
 x_49 <= 12
 x_50 <= 14
 x_51 <= 14
 x_52 <= 38
 x_53 <= 24
 x_54 <= 2
 x_55 <= 94
 x_56 <= 2
 x_57 <= 28
 x_58 <= 18
 x_59 <= 6
 x_60 <= 24
 x_61 <= 18
 x_62 <= 60
 x_63 <= 4
 x_64 <= 6
 x_65 <= 4
 x_66 <= 4
 x_67 <= 4
 x_68 <= 12
 x_69 <= 4
 x_70 <= 3
 x_71 <= 12
 x_72 <= 56
 x_73 <= 4
 x_74 <= 4
 x_75 <= 6
 x_76 <= 6
 x_77 <= 4
 x_78 <= 38
 x_79 <= 12
 x_80 <= 6
 x_81 <= 326
 x_82 <= 2
 x_83 <= 24
 x_84 <= 92
 x_85 <= 50
 x_86 <= 4
 x_87 <= 4
 x_88 <= 22
 x_89 <= 10
 x_90 <= 4
 x_91 <= 4
 x_92 <= 4
 x_93 <= 172
 x_94 <= 28
 x_95 <= 4
 x_96 <= 8
 x_97 <= 6
 x_98 <= 2
 x_99 <= 4
 x_100 <= 4
 x_101 <= 20
 x_102 <= 50
 x_103 <= 3
 x_104 <= 8
 x_105 <= 2
 x_106 <= 2
 x_107 <= 54
 x_108 <= 4
 x_109 <= 4
 x_110 <= 8
 x_111 <= 6
 x_112 <= 2
 x_113 <= 8
 x_114 <= 4
 x_115 <= 61
 x_116 <= 38
 x_117 <= 10
 x_118 <= 4
 x_119 <= 172
 x_120 <= 8
 x_121 <= 2
 x_122 <= 44
 x_123 <= 130
 x_124 <= 2
 x_125 <= 4
 x_126 <= 4
 x_127 <= 4
 x_128 <= 176
 x_129 <= 4
 x_130 <= 4
 x_131 <= 4
 x_132 <= 4
 x_133 <= 4
 x_134 <= 40
 x_135 <= 8
 x_136 <= 14
 x_137 <= 176
 x_138 <= 4
 x_139 <= 14
 x_140 <= 2
 x_141 <= 24
 x_142 <= 6
 x_143 <= 43
 x_144 <= 12
 x_145 <= 4
 x_146 <= 64
 x_147 <= 8
 x_148 <= 4
 x_149 <= 24
 x_150 <= 4
 x_151 <= 84
 x_152 <= 32
 x_153 <= 48
 x_154 <= 50
 x_155 <= 6
 x_156 <= 26
 x_157 <= 2
 x_158 <= 4
 x_159 <= 14
 x_160 <= 8
 x_161 <= 14
 x_162 <= 170
 x_163 <= 4
 x_164 <= 16
 x_165 <= 4
 x_166 <= 4
 x_167 <= 24
 x_168 <= 14
 x_169 <= 102
 x_170 <= 4
 x_171 <= 4
 x_172 <= 20
 x_173 <= 70
 x_174 <= 4
 x_175 <= 36
 x_176 <= 32
 x_177 <= 10
 x_178 <= 207
 x_179 <= 58
 x_180 <= 4
 x_181 <= 60
 x_182 <= 2
 x_183 <= 4
 x_184 <= 246
 x_185 <= 2
 x_186 <= 14
 x_187 <= 14
 x_188 <= 84
 x_189 <= 2
 x_190 <= 40
 x_191 <= 4
 x_192 <= 158
 x_193 <= 144
 x_194 <= 36
 x_195 <= 322
 x_196 <= 4
 x_197 <= 8
 x_198 <= 4
 x_199 <= 90
 x_200 <= 11
 x_201 <= 323
 x_202 <= 4
 x_203 <= 10
 x_204 <= 68
 x_205 <= 2
 x_206 <= 4
 x_207 <= 8
 x_208 <= 4
 x_209 <= 20
 x_210 <= 2
 x_211 <= 4
 x_212 <= 40
 x_213 <= 12
 x_214 <= 24
 x_215 <= 20
 x_216 <= 4
 x_217 <= 170
 x_218 <= 56
 x_219 <= 44
 x_220 <= 4
 x_221 <= 52
 x_222 <= 2
 x_223 <= 4
 x_224 <= 86
 x_225 <= 8
 x_226 <= 16
 x_227 <= 154
 x_228 <= 16
 x_229 <= 34
 x_230 <= 2
 x_231 <= 18
 x_232 <= 2
 x_233 <= 12
 x_234 <= 48
 x_235 <= 32
 x_236 <= 35
 x_237 <= 4
 x_238 <= 278
 x_239 <= 38
 x_240 <= 2
 x_241 <= 4
 x_242 <= 4
 x_243 <= 48
 x_244 <= 54
 x_245 <= 4
 x_246 <= 20
 x_247 <= 74
 x_248 <= 2
 x_249 <= 4
 x_250 <= 4
 x_251 <= 4
 x_252 <= 4
 x_253 <= 4
 x_254 <= 4
 x_255 <= 38
 x_256 <= 4
 x_257 <= 2
 x_258 <= 4
 x_259 <= 12
 x_260 <= 2
 x_261 <= 4
 x_262 <= 8
 x_263 <= 26
 x_264 <= 140
 x_265 <= 4
 x_266 <= 42
 x_267 <= 4
 x_268 <= 24
 x_269 <= 36
 x_270 <= 34
 x_271 <= 8
 x_272 <= 5
 x_273 <= 52
 x_274 <= 36
 x_275 <= 4
 x_276 <= 16
 x_277 <= 4
 x_278 <= 44
 x_279 <= 60
 x_280 <= 38
 x_281 <= 14
 x_282 <= 2
 x_283 <= 8
 x_284 <= 4
 x_285 <= 34
 x_286 <= 4
 x_287 <= 20
 x_288 <= 4
 x_289 <= 4
 x_290 <= 14
 x_291 <= 6
 x_292 <= 22
 x_293 <= 14
 x_294 <= 4
 x_295 <= 4
 x_296 <= 4
 x_297 <= 4
 x_298 <= 8
 x_299 <= 8
 x_300 <= 100
 x_301 <= 283
 x_302 <= 10
 x_303 <= 2
 x_304 <= 6
 x_305 <= 16
 x_306 <= 36
 x_307 <= 2
 x_308 <= 14
 x_309 <= 2
 x_310 <= 8
 x_311 <= 18
 x_312 <= 2
 x_313 <= 20
 x_314 <= 2
 x_315 <= 4
 x_316 <= 8
 x_317 <= 4
 x_318 <= 48
 x_319 <= 24
 x_320 <= 4
 x_321 <= 4
 x_322 <= 4
 x_323 <= 16
 x_324 <= 4
 x_325 <= 2
 x_326 <= 40
 x_327 <= 4
 x_328 <= 26
 x_329 <= 2
 x_330 <= 10
 x_331 <= 12
 x_332 <= 4
 x_333 <= 118
 x_334 <= 18
 x_335 <= 6
 x_336 <= 6
 x_337 <= 4
 x_338 <= 18
 x_339 <= 46
 x_340 <= 8
 x_341 <= 16
 x_342 <= 120
 x_343 <= 8
 x_344 <= 10
 x_345 <= 15
 x_346 <= 8
 x_347 <= 126
 x_348 <= 8
 x_349 <= 4
 x_350 <= 8
 x_351 <= 236
 x_352 <= 2
 x_353 <= 76
 x_354 <= 4
 x_355 <= 4
 x_356 <= 12
 x_357 <= 4
 x_358 <= 12
 x_359 <= 36
 x_360 <= 4
 x_361 <= 2
 x_362 <= 2
 x_363 <= 16
 x_364 <= 12
 x_365 <= 234
 x_366 <= 8
 x_367 <= 12
 x_368 <= 15
 x_369 <= 4
 x_370 <= 6
 x_371 <= 114
 x_372 <= 18
 x_373 <= 60
 x_374 <= 8
 x_375 <= 2
 x_376 <= 12
 x_377 <= 23
 x_378 <= 8
 x_379 <= 154
 x_380 <= 11
 x_381 <= 8
 x_382 <= 8
 x_383 <= 16
 x_384 <= 6
 x_385 <= 2
 x_386 <= 4
 x_387 <= 8
 x_388 <= 112
 x_389 <= 6
 x_390 <= 94
 x_391 <= 2
 x_392 <= 12
 x_393 <= 2
 x_394 <= 12
 x_395 <= 28
 x_396 <= 15
 x_397 <= 6
 x_398 <= 10
 x_399 <= 238
 x_400 <= 64
 x_401 <= 4
 x_402 <= 24
 x_403 <= 12
 x_404 <= 22
 x_405 <= 14
 x_406 <= 16
 x_407 <= 36
 x_408 <= 20
 x_409 <= 4
 x_410 <= 4
 x_411 <= 12
 x_412 <= 4
 x_413 <= 4
 x_414 <= 44
 x_415 <= 4
 x_416 <= 4
 x_417 <= 18
 x_418 <= 4
 x_419 <= 8
 x_420 <= 10
 x_421 <= 54
 x_422 <= 12
 x_423 <= 20
 x_424 <= 4
 x_425 <= 8
 x_426 <= 10
 x_427 <= 16
 x_428 <= 2
 x_429 <= 8
 x_430 <= 4
 x_431 <= 4
 x_432 <= 2
 x_433 <= 4
 x_434 <= 20
 x_435 <= 76
 x_436 <= 56
 x_437 <= 6
 x_438 <= 4
 x_439 <= 23
 x_440 <= 18
 x_441 <= 48
 x_442 <= 56
 x_443 <= 110
 x_444 <= 4
 x_445 <= 190
 x_446 <= 8
 x_447 <= 20
 x_448 <= 2
 x_449 <= 72
 x_450 <= 4
 x_451 <= 4
 x_452 <= 6
 x_453 <= 10
 x_454 <= 4
 x_455 <= 2
 x_456 <= 43
 x_457 <= 6
 x_458 <= 6
 x_459 <= 20
 x_460 <= 22
 x_461 <= 3
 x_462 <= 16
 x_463 <= 2
 x_464 <= 2
 x_465 <= 32
 x_466 <= 14
 x_467 <= 2
 x_468 <= 2
 x_469 <= 6
 x_470 <= 2
 x_471 <= 6
 x_472 <= 2
 x_473 <= 6
 x_474 <= 6
 x_475 <= 6
 x_476 <= 12
 x_477 <= 60
 x_478 <= 8
 x_479 <= 8
 x_480 <= 38
 x_481 <= 4
Generals
 x_1  x_2  x_3  x_4  x_5  x_6  x_7  x_8  x_9  x_10  x_11  x_12  x_13  x_14  
 x_15  x_16  x_17  x_18  x_19  x_20  x_21  x_22  x_23  x_24  x_25  x_26  
 x_27  x_28  x_29  x_30  x_31  x_32  x_33  x_34  x_35  x_36  x_37  x_38  
 x_39  x_40  x_41  x_42  x_43  x_44  x_45  x_46  x_47  x_48  x_49  x_50  
 x_51  x_52  x_53  x_54  x_55  x_56  x_57  x_58  x_59  x_60  x_61  x_62  
 x_63  x_64  x_65  x_66  x_67  x_68  x_69  x_70  x_71  x_72  x_73  x_74  
 x_75  x_76  x_77  x_78  x_79  x_80  x_81  x_82  x_83  x_84  x_85  x_86  
 x_87  x_88  x_89  x_90  x_91  x_92  x_93  x_94  x_95  x_96  x_97  x_98  
 x_99  x_100  x_101  x_102  x_103  x_104  x_105  x_106  x_107  x_108  
 x_109  x_110  x_111  x_112  x_113  x_114  x_115  x_116  x_117  x_118  
 x_119  x_120  x_121  x_122  x_123  x_124  x_125  x_126  x_127  x_128  
 x_129  x_130  x_131  x_132  x_133  x_134  x_135  x_136  x_137  x_138  
 x_139  x_140  x_141  x_142  x_143  x_144  x_145  x_146  x_147  x_148  
 x_149  x_150  x_151  x_152  x_153  x_154  x_155  x_156  x_157  x_158  
 x_159  x_160  x_161  x_162  x_163  x_164  x_165  x_166  x_167  x_168  
 x_169  x_170  x_171  x_172  x_173  x_174  x_175  x_176  x_177  x_178  
 x_179  x_180  x_181  x_182  x_183  x_184  x_185  x_186  x_187  x_188  
 x_189  x_190  x_191  x_192  x_193  x_194  x_195  x_196  x_197  x_198  
 x_199  x_200  x_201  x_202  x_203  x_204  x_205  x_206  x_207  x_208  
 x_209  x_210  x_211  x_212  x_213  x_214  x_215  x_216  x_217  x_218  
 x_219  x_220  x_221  x_222  x_223  x_224  x_225  x_226  x_227  x_228  
 x_229  x_230  x_231  x_232  x_233  x_234  x_235  x_236  x_237  x_238  
 x_239  x_240  x_241  x_242  x_243  x_244  x_245  x_246  x_247  x_248  
 x_249  x_250  x_251  x_252  x_253  x_254  x_255  x_256  x_257  x_258  
 x_259  x_260  x_261  x_262  x_263  x_264  x_265  x_266  x_267  x_268  
 x_269  x_270  x_271  x_272  x_273  x_274  x_275  x_276  x_277  x_278  
 x_279  x_280  x_281  x_282  x_283  x_284  x_285  x_286  x_287  x_288  
 x_289  x_290  x_291  x_292  x_293  x_294  x_295  x_296  x_297  x_298  
 x_299  x_300  x_301  x_302  x_303  x_304  x_305  x_306  x_307  x_308  
 x_309  x_310  x_311  x_312  x_313  x_314  x_315  x_316  x_317  x_318  
 x_319  x_320  x_321  x_322  x_323  x_324  x_325  x_326  x_327  x_328  
 x_329  x_330  x_331  x_332  x_333  x_334  x_335  x_336  x_337  x_338  
 x_339  x_340  x_341  x_342  x_343  x_344  x_345  x_346  x_347  x_348  
 x_349  x_350  x_351  x_352  x_353  x_354  x_355  x_356  x_357  x_358  
 x_359  x_360  x_361  x_362  x_363  x_364  x_365  x_366  x_367  x_368  
 x_369  x_370  x_371  x_372  x_373  x_374  x_375  x_376  x_377  x_378  
 x_379  x_380  x_381  x_382  x_383  x_384  x_385  x_386  x_387  x_388  
 x_389  x_390  x_391  x_392  x_393  x_394  x_395  x_396  x_397  x_398  
 x_399  x_400  x_401  x_402  x_403  x_404  x_405  x_406  x_407  x_408  
 x_409  x_410  x_411  x_412  x_413  x_414  x_415  x_416  x_417  x_418  
 x_419  x_420  x_421  x_422  x_423  x_424  x_425  x_426  x_427  x_428  
 x_429  x_430  x_431  x_432  x_433  x_434  x_435  x_436  x_437  x_438  
 x_439  x_440  x_441  x_442  x_443  x_444  x_445  x_446  x_447  x_448  
 x_449  x_450  x_451  x_452  x_453  x_454  x_455  x_456  x_457  x_458  
 x_459  x_460  x_461  x_462  x_463  x_464  x_465  x_466  x_467  x_468  
 x_469  x_470  x_471  x_472  x_473  x_474  x_475  x_476  x_477  x_478  
 x_479  x_480  x_481  
END

